certificates/rado_a15_c214_N39.cnf
c Rad2 upper bound instance: x1 + 15*x2 - x3 = 214, interval [1,39]
p cnf 39 202
1 12 15 0
-1 -12 -15 0
1 16 27 0
-1 -16 -27 0
2 13 15 0
-2 -13 -15 0
2 16 28 0
-2 -16 -28 0
3 14 15 0
-3 -14 -15 0
3 16 29 0
-3 -16 -29 0
4 15 0
-4 -15 0
4 16 30 0
-4 -16 -30 0
1 5 14 0
-1 -5 -14 0
5 15 16 0
-5 -15 -16 0
5 16 31 0
-5 -16 -31 0
2 6 14 0
-2 -6 -14 0
6 15 17 0
-6 -15 -17 0
6 16 32 0
-6 -16 -32 0
3 7 14 0
-3 -7 -14 0
7 15 18 0
-7 -15 -18 0
7 16 33 0
-7 -16 -33 0
4 8 14 0
-4 -8 -14 0
8 15 19 0
-8 -15 -19 0
8 16 34 0
-8 -16 -34 0
5 9 14 0
-5 -9 -14 0
9 15 20 0
-9 -15 -20 0
9 16 35 0
-9 -16 -35 0
6 10 14 0
-6 -10 -14 0
10 15 21 0
-10 -15 -21 0
10 16 36 0
-10 -16 -36 0
7 11 14 0
-7 -11 -14 0
11 15 22 0
-11 -15 -22 0
11 16 37 0
-11 -16 -37 0
8 12 14 0
-8 -12 -14 0
12 15 23 0
-12 -15 -23 0
12 16 38 0
-12 -16 -38 0
9 13 14 0
-9 -13 -14 0
13 15 24 0
-13 -15 -24 0
13 16 39 0
-13 -16 -39 0
10 14 0
-10 -14 0
14 15 25 0
-14 -15 -25 0
11 14 15 0
-11 -14 -15 0
15 26 0
-15 -26 0
12 14 16 0
-12 -14 -16 0
15 16 27 0
-15 -16 -27 0
13 14 17 0
-13 -14 -17 0
15 17 28 0
-15 -17 -28 0
14 18 0
-14 -18 0
15 18 29 0
-15 -18 -29 0
14 15 19 0
-14 -15 -19 0
15 19 30 0
-15 -19 -30 0
1 13 20 0
-1 -13 -20 0
14 16 20 0
-14 -16 -20 0
15 20 31 0
-15 -20 -31 0
2 13 21 0
-2 -13 -21 0
14 17 21 0
-14 -17 -21 0
15 21 32 0
-15 -21 -32 0
3 13 22 0
-3 -13 -22 0
14 18 22 0
-14 -18 -22 0
15 22 33 0
-15 -22 -33 0
4 13 23 0
-4 -13 -23 0
14 19 23 0
-14 -19 -23 0
15 23 34 0
-15 -23 -34 0
5 13 24 0
-5 -13 -24 0
14 20 24 0
-14 -20 -24 0
15 24 35 0
-15 -24 -35 0
6 13 25 0
-6 -13 -25 0
14 21 25 0
-14 -21 -25 0
15 25 36 0
-15 -25 -36 0
7 13 26 0
-7 -13 -26 0
14 22 26 0
-14 -22 -26 0
15 26 37 0
-15 -26 -37 0
8 13 27 0
-8 -13 -27 0
14 23 27 0
-14 -23 -27 0
15 27 38 0
-15 -27 -38 0
9 13 28 0
-9 -13 -28 0
14 24 28 0
-14 -24 -28 0
15 28 39 0
-15 -28 -39 0
10 13 29 0
-10 -13 -29 0
14 25 29 0
-14 -25 -29 0
11 13 30 0
-11 -13 -30 0
14 26 30 0
-14 -26 -30 0
12 13 31 0
-12 -13 -31 0
14 27 31 0
-14 -27 -31 0
13 32 0
-13 -32 0
14 28 32 0
-14 -28 -32 0
13 14 33 0
-13 -14 -33 0
14 29 33 0
-14 -29 -33 0
13 15 34 0
-13 -15 -34 0
14 30 34 0
-14 -30 -34 0
1 12 35 0
-1 -12 -35 0
13 16 35 0
-13 -16 -35 0
14 31 35 0
-14 -31 -35 0
2 12 36 0
-2 -12 -36 0
13 17 36 0
-13 -17 -36 0
14 32 36 0
-14 -32 -36 0
3 12 37 0
-3 -12 -37 0
13 18 37 0
-13 -18 -37 0
14 33 37 0
-14 -33 -37 0
4 12 38 0
-4 -12 -38 0
13 19 38 0
-13 -19 -38 0
14 34 38 0
-14 -34 -38 0
5 12 39 0
-5 -12 -39 0
13 20 39 0
-13 -20 -39 0
14 35 39 0
-14 -35 -39 0
