certificates/rado_a15_c214_N39.drat
-35 -36 -39 0
16 35 -37 0
-36 -37 -39 0
-16 -37 -39 0
-37 -39 0
d -36 -37 -39 0
-35 -38 -39 0
16 35 -39 0
-38 -39 0
d -35 -38 -39 0
35 -39 0
d 16 35 -39 0
-39 0
14 16 0
16 -35 0
9 13 0
d 9 28 13 0
-16 -35 0
d -16 -9 -35 0
-35 0
14 0
-10 0
-18 0
13 0
-32 0
-9 0
-17 0
-33 0
16 0
-20 0
-12 0
15 0
1 0
5 0
-4 0
-26 0
-2 0
-24 0
-34 0
-27 0
0
